(set-logic QF_S)
(declare-fun var0 () String)
(assert (RegexIn var0 (RegexConcat (RegexUnion (RegexPlus (Str2Reg "0")) (RegexPlus (Str2Reg "11"))) (RegexConcat (RegexPlus (RegexStar (Str2Reg "22"))) (RegexConcat (RegexPlus (RegexUnion (Str2Reg "3") (Str2Reg "4"))) (RegexConcat (RegexStar (RegexStar (Str2Reg "5"))) (RegexConcat (RegexUnion (RegexPlus (Str2Reg "6")) (RegexPlus (Str2Reg "777"))) (RegexConcat (RegexUnion (RegexStar (Str2Reg "888")) (RegexStar (Str2Reg "999"))) (RegexConcat (RegexUnion (RegexStar (Str2Reg "aaa")) (RegexStar (Str2Reg "bb"))) (RegexConcat (RegexStar (RegexPlus (Str2Reg "c"))) (RegexConcat (RegexUnion (RegexStar (Str2Reg "ddd")) (RegexStar (Str2Reg "ee"))) (RegexConcat (RegexUnion (RegexPlus (Str2Reg "ff")) (RegexPlus (Str2Reg "g"))) (RegexConcat (RegexUnion (RegexStar (Str2Reg "hh")) (RegexStar (Str2Reg "i"))) (RegexConcat (RegexUnion (RegexPlus (Str2Reg "j")) (RegexPlus (Str2Reg "kk"))) (RegexConcat (RegexPlus (RegexUnion (Str2Reg "lll") (Str2Reg "mmm"))) (RegexConcat (RegexStar (RegexPlus (Str2Reg "nn"))) (RegexConcat (RegexUnion (RegexStar (Str2Reg "o")) (RegexStar (Str2Reg "p"))) (RegexConcat (RegexPlus (RegexStar (Str2Reg "qqq"))) (RegexConcat (RegexPlus (RegexStar (Str2Reg "r"))) (RegexConcat (RegexUnion (RegexStar (Str2Reg "ss")) (RegexStar (Str2Reg "tt"))) (RegexConcat (RegexUnion (RegexPlus (Str2Reg "uuu")) (RegexPlus (Str2Reg "vvv"))) (RegexConcat (RegexStar (RegexStar (Str2Reg "ww"))) (RegexConcat (RegexStar (RegexPlus (Str2Reg "xx"))) (RegexConcat (RegexUnion (RegexStar (Str2Reg "y")) (RegexStar (Str2Reg "zz"))) (RegexConcat (RegexPlus (RegexPlus (Str2Reg "AA"))) (RegexConcat (RegexPlus (RegexUnion (Str2Reg "BB") (Str2Reg "C"))) (RegexConcat (RegexStar (RegexPlus (Str2Reg "DD"))) (RegexConcat (RegexPlus (RegexStar (Str2Reg "EE"))) (RegexConcat (RegexStar (RegexStar (Str2Reg "FFF"))) (RegexConcat (RegexStar (RegexStar (Str2Reg "GG"))) (RegexConcat (RegexStar (RegexPlus (Str2Reg "HHH"))) (RegexConcat (RegexPlus (RegexStar (Str2Reg "III"))) (RegexConcat (RegexUnion (RegexPlus (Str2Reg "J")) (RegexPlus (Str2Reg "KKK"))) (RegexConcat (RegexStar (RegexPlus (Str2Reg "LLL"))) (RegexConcat (RegexPlus (RegexUnion (Str2Reg "MMM") (Str2Reg "N"))) (RegexConcat (RegexUnion (RegexStar (Str2Reg "O")) (RegexStar (Str2Reg "PPP"))) (RegexConcat (RegexStar (RegexStar (Str2Reg "QQ"))) (RegexConcat (RegexUnion (RegexUnion (Str2Reg "RR") (Str2Reg "SS")) (RegexUnion (Str2Reg "T") (Str2Reg "U"))) (RegexConcat (RegexPlus (RegexStar (Str2Reg "VVV"))) (RegexConcat (RegexUnion (RegexUnion (Str2Reg "WWW") (Str2Reg "X")) (RegexUnion (Str2Reg "Y") (Str2Reg "ZZ"))) (RegexConcat (RegexPlus (RegexStar (Str2Reg "!"))) (RegexConcat (RegexStar (RegexPlus (Str2Reg "\""))) (RegexConcat (RegexStar (RegexUnion (Str2Reg "#") (Str2Reg "$$"))) (RegexConcat (RegexUnion (RegexUnion (Str2Reg "%%%") (Str2Reg "&")) (RegexUnion (Str2Reg "'") (Str2Reg "("))) (RegexConcat (RegexPlus (RegexUnion (Str2Reg ")))") (Str2Reg "*"))) (RegexConcat (RegexPlus (RegexStar (Str2Reg "+"))) (RegexConcat (RegexPlus (RegexUnion (Str2Reg ",,") (Str2Reg "-"))) (RegexConcat (RegexStar (RegexUnion (Str2Reg ".") (Str2Reg "//"))) (RegexConcat (RegexUnion (RegexStar (Str2Reg "::")) (RegexStar (Str2Reg ";"))) (RegexConcat (RegexUnion (RegexPlus (Str2Reg "<<")) (RegexPlus (Str2Reg "=="))) (RegexConcat (RegexPlus (RegexUnion (Str2Reg ">>") (Str2Reg "??"))) (RegexConcat (RegexStar (RegexPlus (Str2Reg "@"))) (RegexConcat (RegexStar (RegexUnion (Str2Reg "[") (Str2Reg "\\\\\\"))) (RegexConcat (RegexUnion (RegexStar (Str2Reg "]]")) (RegexStar (Str2Reg "^^"))) (RegexConcat (RegexStar (RegexPlus (Str2Reg "_"))) (RegexConcat (RegexStar (RegexUnion (Str2Reg "```") (Str2Reg "{{"))) (RegexConcat (RegexStar (RegexPlus (Str2Reg "|||"))) (RegexConcat (RegexUnion (RegexPlus (Str2Reg "}}")) (RegexPlus (Str2Reg "~"))) (RegexConcat (RegexPlus (RegexUnion (Str2Reg "000") (Str2Reg "1"))) (RegexConcat (RegexUnion (RegexPlus (Str2Reg "222")) (RegexPlus (Str2Reg "3"))) (RegexConcat (RegexUnion (RegexUnion (Str2Reg "444") (Str2Reg "55")) (RegexUnion (Str2Reg "666") (Str2Reg "777"))) (RegexConcat (RegexUnion (RegexStar (Str2Reg "8")) (RegexStar (Str2Reg "999"))) (RegexConcat (RegexStar (RegexUnion (Str2Reg "a") (Str2Reg "bbb"))) (RegexConcat (RegexUnion (RegexStar (Str2Reg "ccc")) (RegexStar (Str2Reg "ddd"))) (RegexConcat (RegexUnion (RegexPlus (Str2Reg "eee")) (RegexPlus (Str2Reg "f"))) (RegexConcat (RegexPlus (RegexUnion (Str2Reg "gg") (Str2Reg "hhh"))) (RegexConcat (RegexStar (RegexPlus (Str2Reg "ii"))) (RegexConcat (RegexStar (RegexUnion (Str2Reg "jjj") (Str2Reg "kkk"))) (RegexConcat (RegexUnion (RegexStar (Str2Reg "lll")) (RegexStar (Str2Reg "mmm"))) (RegexConcat (RegexStar (RegexStar (Str2Reg "nnn"))) (RegexConcat (RegexStar (RegexUnion (Str2Reg "ooo") (Str2Reg "pp"))) (RegexConcat (RegexUnion (RegexStar (Str2Reg "q")) (RegexStar (Str2Reg "r"))) (RegexConcat (RegexStar (RegexStar (Str2Reg "ss"))) (RegexConcat (RegexStar (RegexUnion (Str2Reg "tt") (Str2Reg "uu"))) (RegexConcat (RegexStar (RegexPlus (Str2Reg "v"))) (RegexConcat (RegexUnion (RegexUnion (Str2Reg "ww") (Str2Reg "xxx")) (RegexUnion (Str2Reg "yyy") (Str2Reg "zzz"))) (RegexConcat (RegexUnion (RegexPlus (Str2Reg "AAA")) (RegexPlus (Str2Reg "BB"))) (RegexConcat (RegexUnion (RegexUnion (Str2Reg "CCC") (Str2Reg "D")) (RegexUnion (Str2Reg "EEE") (Str2Reg "FFF"))) (RegexConcat (RegexStar (RegexPlus (Str2Reg "GGG"))) (RegexConcat (RegexPlus (RegexPlus (Str2Reg "HHH"))) (RegexConcat (RegexPlus (RegexStar (Str2Reg "II"))) (RegexConcat (RegexPlus (RegexUnion (Str2Reg "JJJ") (Str2Reg "KKK"))) (RegexConcat (RegexUnion (RegexPlus (Str2Reg "LLL")) (RegexPlus (Str2Reg "M"))) (RegexConcat (RegexStar (RegexPlus (Str2Reg "N"))) (RegexConcat (RegexUnion (RegexStar (Str2Reg "OOO")) (RegexStar (Str2Reg "PP"))) (RegexConcat (RegexPlus (RegexStar (Str2Reg "Q"))) (RegexConcat (RegexPlus (RegexPlus (Str2Reg "RRR"))) (RegexConcat (RegexPlus (RegexUnion (Str2Reg "SS") (Str2Reg "T"))) (RegexConcat (RegexUnion (RegexUnion (Str2Reg "UUU") (Str2Reg "V")) (RegexUnion (Str2Reg "WWW") (Str2Reg "XX"))) (RegexConcat (RegexUnion (RegexStar (Str2Reg "YY")) (RegexStar (Str2Reg "ZZ"))) (RegexConcat (RegexUnion (RegexUnion (Str2Reg "!!!") (Str2Reg "\"\"")) (RegexUnion (Str2Reg "##") (Str2Reg "$$"))) (RegexConcat (RegexStar (RegexUnion (Str2Reg "%") (Str2Reg "&"))) (RegexConcat (RegexPlus (RegexStar (Str2Reg "''"))) (RegexConcat (RegexPlus (RegexPlus (Str2Reg "((("))) (RegexConcat (RegexUnion (RegexUnion (Str2Reg ")))") (Str2Reg "*")) (RegexUnion (Str2Reg "+") (Str2Reg ","))) (RegexConcat (RegexPlus (RegexStar (Str2Reg "---"))) (RegexConcat (RegexUnion (RegexUnion (Str2Reg "..") (Str2Reg "/")) (RegexUnion (Str2Reg ":::") (Str2Reg ";"))) (RegexConcat (RegexUnion (RegexPlus (Str2Reg "<")) (RegexPlus (Str2Reg "==="))) (RegexConcat (RegexUnion (RegexPlus (Str2Reg ">>")) (RegexPlus (Str2Reg "?"))) (RegexConcat (RegexStar (RegexStar (Str2Reg "@"))) (RegexConcat (RegexUnion (RegexPlus (Str2Reg "[")) (RegexPlus (Str2Reg "\\\\"))) (RegexConcat (RegexStar (RegexUnion (Str2Reg "]") (Str2Reg "^^"))) (RegexConcat (RegexPlus (RegexStar (Str2Reg "__"))) (RegexConcat (RegexUnion (RegexUnion (Str2Reg "``") (Str2Reg "{")) (RegexUnion (Str2Reg "|||") (Str2Reg "}}}"))) (RegexConcat (RegexUnion (RegexPlus (Str2Reg "~")) (RegexPlus (Str2Reg "00"))) (RegexConcat (RegexUnion (RegexPlus (Str2Reg "111")) (RegexPlus (Str2Reg "22"))) (RegexConcat (RegexStar (RegexStar (Str2Reg "333"))) (RegexConcat (RegexStar (RegexPlus (Str2Reg "4"))) (RegexConcat (RegexUnion (RegexUnion (Str2Reg "5") (Str2Reg "666")) (RegexUnion (Str2Reg "777") (Str2Reg "888"))) (RegexConcat (RegexPlus (RegexPlus (Str2Reg "99"))) (RegexConcat (RegexUnion (RegexUnion (Str2Reg "aa") (Str2Reg "bb")) (RegexUnion (Str2Reg "cc") (Str2Reg "ddd"))) (RegexConcat (RegexStar (RegexPlus (Str2Reg "e"))) (RegexConcat (RegexStar (RegexUnion (Str2Reg "ff") (Str2Reg "ggg"))) (RegexConcat (RegexPlus (RegexPlus (Str2Reg "hh"))) (RegexConcat (RegexStar (RegexStar (Str2Reg "ii"))) (RegexConcat (RegexPlus (RegexUnion (Str2Reg "jj") (Str2Reg "k"))) (RegexConcat (RegexPlus (RegexUnion (Str2Reg "ll") (Str2Reg "mmm"))) (RegexConcat (RegexUnion (RegexStar (Str2Reg "n")) (RegexStar (Str2Reg "o"))) (RegexConcat (RegexUnion (RegexUnion (Str2Reg "ppp") (Str2Reg "q")) (RegexUnion (Str2Reg "r") (Str2Reg "sss"))) (RegexConcat (RegexStar (RegexUnion (Str2Reg "t") (Str2Reg "uuu"))) (RegexConcat (RegexStar (RegexUnion (Str2Reg "vv") (Str2Reg "ww"))) (RegexConcat (RegexPlus (RegexStar (Str2Reg "xx"))) (RegexConcat (RegexPlus (RegexPlus (Str2Reg "y"))) (RegexConcat (RegexUnion (RegexStar (Str2Reg "z")) (RegexStar (Str2Reg "AAA"))) (RegexConcat (RegexStar (RegexStar (Str2Reg "B"))) (RegexConcat (RegexPlus (RegexStar (Str2Reg "CCC"))) (RegexConcat (RegexPlus (RegexUnion (Str2Reg "D") (Str2Reg "EEE"))) (RegexConcat (RegexUnion (RegexUnion (Str2Reg "FF") (Str2Reg "GG")) (RegexUnion (Str2Reg "HHH") (Str2Reg "II"))) (RegexConcat (RegexStar (RegexUnion (Str2Reg "JJJ") (Str2Reg "K"))) (RegexConcat (RegexPlus (RegexUnion (Str2Reg "L") (Str2Reg "MM"))) (RegexConcat (RegexStar (RegexUnion (Str2Reg "N") (Str2Reg "OOO"))) (RegexConcat (RegexPlus (RegexStar (Str2Reg "PPP"))) (RegexConcat (RegexStar (RegexStar (Str2Reg "Q"))) (RegexConcat (RegexUnion (RegexUnion (Str2Reg "RRR") (Str2Reg "SSS")) (RegexUnion (Str2Reg "T") (Str2Reg "U"))) (RegexConcat (RegexStar (RegexStar (Str2Reg "VVV"))) (RegexConcat (RegexStar (RegexStar (Str2Reg "WW"))) (RegexConcat (RegexPlus (RegexPlus (Str2Reg "XX"))) (RegexConcat (RegexPlus (RegexUnion (Str2Reg "YY") (Str2Reg "Z"))) (RegexConcat (RegexStar (RegexStar (Str2Reg "!"))) (RegexConcat (RegexPlus (RegexPlus (Str2Reg "\""))) (RegexConcat (RegexStar (RegexPlus (Str2Reg "##"))) (RegexConcat (RegexPlus (RegexUnion (Str2Reg "$$$") (Str2Reg "%%"))) (RegexConcat (RegexStar (RegexPlus (Str2Reg "&&"))) (RegexConcat (RegexPlus (RegexUnion (Str2Reg "'") (Str2Reg "(("))) (RegexConcat (RegexPlus (RegexStar (Str2Reg ")))"))) (RegexConcat (RegexPlus (RegexPlus (Str2Reg "***"))) (RegexConcat (RegexPlus (RegexStar (Str2Reg "++"))) (RegexConcat (RegexStar (RegexUnion (Str2Reg ",") (Str2Reg "---"))) (RegexConcat (RegexUnion (RegexUnion (Str2Reg "..") (Str2Reg "/")) (RegexUnion (Str2Reg "::") (Str2Reg ";;"))) (RegexConcat (RegexPlus (RegexPlus (Str2Reg "<<<"))) (RegexConcat (RegexUnion (RegexUnion (Str2Reg "=") (Str2Reg ">")) (RegexUnion (Str2Reg "??") (Str2Reg "@"))) (RegexConcat (RegexUnion (RegexUnion (Str2Reg "[") (Str2Reg "\\\\\\")) (RegexUnion (Str2Reg "]]]") (Str2Reg "^^"))) (RegexConcat (RegexStar (RegexStar (Str2Reg "_"))) (RegexConcat (RegexUnion (RegexStar (Str2Reg "```")) (RegexStar (Str2Reg "{{{"))) (RegexConcat (RegexStar (RegexPlus (Str2Reg "|||"))) (RegexConcat (RegexStar (RegexPlus (Str2Reg "}}}"))) (RegexConcat (RegexPlus (RegexUnion (Str2Reg "~~~") (Str2Reg "00"))) (RegexConcat (RegexStar (RegexUnion (Str2Reg "1") (Str2Reg "22"))) (RegexConcat (RegexPlus (RegexPlus (Str2Reg "3"))) (RegexConcat (RegexStar (RegexStar (Str2Reg "44"))) (RegexConcat (RegexUnion (RegexPlus (Str2Reg "555")) (RegexPlus (Str2Reg "6"))) (RegexConcat (RegexPlus (RegexUnion (Str2Reg "77") (Str2Reg "8"))) (RegexConcat (RegexStar (RegexUnion (Str2Reg "99") (Str2Reg "aa"))) (RegexConcat (RegexStar (RegexPlus (Str2Reg "bbb"))) (RegexConcat (RegexStar (RegexStar (Str2Reg "cc"))) (RegexConcat (RegexUnion (RegexPlus (Str2Reg "ddd")) (RegexPlus (Str2Reg "eee"))) (RegexConcat (RegexPlus (RegexUnion (Str2Reg "fff") (Str2Reg "gg"))) (RegexConcat (RegexStar (RegexPlus (Str2Reg "hh"))) (RegexConcat (RegexUnion (RegexUnion (Str2Reg "ii") (Str2Reg "jj")) (RegexUnion (Str2Reg "kkk") (Str2Reg "lll"))) (RegexConcat (RegexStar (RegexStar (Str2Reg "m"))) (RegexConcat (RegexStar (RegexUnion (Str2Reg "nn") (Str2Reg "oo"))) (RegexConcat (RegexPlus (RegexPlus (Str2Reg "p"))) (RegexConcat (RegexPlus (RegexStar (Str2Reg "qq"))) (RegexConcat (RegexUnion (RegexPlus (Str2Reg "rr")) (RegexPlus (Str2Reg "ss"))) (RegexConcat (RegexStar (RegexUnion (Str2Reg "tt") (Str2Reg "uu"))) (RegexConcat (RegexUnion (RegexUnion (Str2Reg "v") (Str2Reg "ww")) (RegexUnion (Str2Reg "xx") (Str2Reg "y"))) (RegexConcat (RegexStar (RegexStar (Str2Reg "z"))) (RegexConcat (RegexUnion (RegexUnion (Str2Reg "AA") (Str2Reg "BB")) (RegexUnion (Str2Reg "CC") (Str2Reg "DDD"))) (RegexConcat (RegexPlus (RegexStar (Str2Reg "EE"))) (RegexConcat (RegexUnion (RegexStar (Str2Reg "FFF")) (RegexStar (Str2Reg "G"))) (RegexConcat (RegexStar (RegexStar (Str2Reg "HH"))) (RegexConcat (RegexUnion (RegexPlus (Str2Reg "II")) (RegexPlus (Str2Reg "JJ"))) (RegexConcat (RegexPlus (RegexPlus (Str2Reg "K"))) (RegexConcat (RegexUnion (RegexUnion (Str2Reg "LLL") (Str2Reg "MMM")) (RegexUnion (Str2Reg "NN") (Str2Reg "OOO"))) (RegexStar (RegexPlus (Str2Reg "PPP")))))))))))))))))))))))))))))))))))))))))))))))))))))))))))))))))))))))))))))))))))))))))))))))))))))))))))))))))))))))))))))))))))))))))))))))))))))))))))))))))))))))))))))))))))))))))))
(check-sat)